9
0, 602, 572, 641, 287, 290, 290, 526, 353
602, 0, 165, 220, 878, 371, 893, 444, 529
572, 165, 0, 82, 859, 294, 857, 286, 408
641, 220, 82, 0, 928, 355, 921, 282, 439
287, 878, 859, 928, 0, 576, 92, 794, 600
290, 371, 294, 355, 576, 0, 565, 265, 191
290, 893, 857, 921, 92, 565, 0, 761, 559
526, 444, 286, 282, 794, 265, 761, 0, 207
353, 529, 408, 439, 600, 191, 559, 207, 0
